(declare-datatypes () ((Lst (cons (head Int) (tail Lst)) (nil))))

(declare-fun append (Lst Lst) Lst)
(assert (forall ((x Lst)) (= (append nil x) x)))
(assert (forall ((x Int) (y Lst) (z Lst)) (= (append (cons x y) z) (cons x (append y z)))))

(declare-fun rev (Lst) Lst)
(assert (= (rev nil) nil))
(assert (forall ((x Int) (y Lst)) (= (rev (cons x y)) (append (rev y) (cons x nil)))))

(declare-fun rev2 (Lst Lst) Lst)
(assert (forall ((a Lst)) (= (rev2 nil a) a)))
(assert (forall ((x Int) (t Lst) (a Lst)) (= (rev2 (cons x t) a) (rev2 t (cons x a)))))

; extra lemmas
(assert (forall ((x Lst) (a Lst)) (= (rev2 x a) (append (rev2 x nil) a))))

; needs just "--ind 3,5,6,7"

(assert (not (forall ((x Lst)) (= (rev2 x nil) (rev x)))))
(check-sat)
